feasible solution found by trivial heuristic after 1.7 seconds, objective value -1.849907e+09
presolving:
(round 1, fast)       295261 del vars, 301739 del conss, 0 add conss, 0 chg bounds, 6478 chg sides, 0 chg coeffs, 0 upgd conss, 0 impls, 6509 clqs
   (6.4s) running MILP presolver
   (7.0s) MILP presolver (2 rounds): 0 aggregations, 3239 fixings, 0 bound changes
(round 2, medium)     298500 del vars, 314726 del conss, 9748 add conss, 0 chg bounds, 6478 chg sides, 0 chg coeffs, 0 upgd conss, 0 impls, 6509 clqs
(round 3, exhaustive) 298500 del vars, 315011 del conss, 9748 add conss, 0 chg bounds, 6478 chg sides, 0 chg coeffs, 0 upgd conss, 0 impls, 9463 clqs
(round 4, exhaustive) 298500 del vars, 315011 del conss, 9748 add conss, 0 chg bounds, 6478 chg sides, 0 chg coeffs, 9463 upgd conss, 0 impls, 9463 clqs
   (7.6s) probing: 51/138 (37.0%) - 0 fixings, 0 aggregations, 0 implications, 0 bound changes
   (7.6s) probing aborted: 50/50 successive totally useless probings
   (7.7s) symmetry computation started: requiring (bin +, int -, cont +), (fixed: bin -, int +, cont -)
   (7.7s) no symmetry present
presolving (5 rounds: 5 fast, 4 medium, 3 exhaustive):
 298500 deleted vars, 315011 deleted constraints, 9748 added constraints, 0 tightened bounds, 0 added holes, 6478 changed sides, 0 changed coefficients
 0 implications, 9463 cliques
presolved problem has 138 variables (138 bin, 0 int, 0 impl, 0 cont) and 9463 constraints
   9463 constraints of type <setppc>
Presolving Time: 6.63
transformed 1/1 original solutions to the transformed problem space

 time | node  | left  |LP iter|LP it/n|mem/heur|mdpt |vars |cons |rows |cuts |sepa|confs|strbr|  dualbound   | primalbound  |  gap   | compl. 
p11.3s|     1 |     0 |     0 |     - |  clique|   0 | 138 |9463 |9463 |   0 |  0 |   0 |   0 |-1.843641e+09 |-1.849389e+09 |   0.31%| unknown
p11.3s|     1 |     0 |     0 |     - |   locks|   0 | 138 |9463 |9463 |   0 |  0 |   0 |   0 |-1.843641e+09 |-1.849301e+09 |   0.31%| unknown
i11.4s|     1 |     0 |    20 |     - |  oneopt|   0 | 138 |9463 |9463 |   0 |  0 |   0 |   0 |-1.843641e+09 |-1.849228e+09 |   0.30%| unknown
 11.8s|     1 |     0 |  1183 |     - |   938M |   0 | 138 |9463 |9463 |   0 |  0 |   0 |   0 |-1.848691e+09 |-1.849228e+09 |   0.03%| unknown
 12.0s|     1 |     0 |  1328 |     - |   941M |   0 | 138 |9463 |9464 |   1 |  1 |   0 |   0 |-1.848694e+09 |-1.849228e+09 |   0.03%| unknown
 12.2s|     1 |     0 |  1467 |     - |   943M |   0 | 138 |9463 |9465 |   2 |  2 |   0 |   0 |-1.848696e+09 |-1.849228e+09 |   0.03%| unknown
 12.3s|     1 |     0 |  1617 |     - |   945M |   0 | 138 |9463 |9466 |   3 |  3 |   0 |   0 |-1.848697e+09 |-1.849228e+09 |   0.03%| unknown
 12.4s|     1 |     0 |  1773 |     - |   946M |   0 | 138 |9463 |9467 |   4 |  4 |   0 |   0 |-1.848698e+09 |-1.849228e+09 |   0.03%| unknown
 12.5s|     1 |     0 |  1905 |     - |   948M |   0 | 138 |9463 |9468 |   5 |  5 |   0 |   0 |-1.848698e+09 |-1.849228e+09 |   0.03%| unknown
 12.6s|     1 |     0 |  2133 |     - |   951M |   0 | 138 |9463 |9469 |   6 |  6 |   0 |   0 |-1.848699e+09 |-1.849228e+09 |   0.03%| unknown
 12.7s|     1 |     0 |  2288 |     - |   952M |   0 | 138 |9463 |9470 |   7 |  7 |   0 |   0 |-1.848699e+09 |-1.849228e+09 |   0.03%| unknown
 12.9s|     1 |     0 |  2463 |     - |   954M |   0 | 138 |9463 |9471 |   8 |  8 |   0 |   0 |-1.848700e+09 |-1.849228e+09 |   0.03%| unknown
 13.0s|     1 |     0 |  2609 |     - |   955M |   0 | 138 |9463 |9472 |   9 |  9 |   0 |   0 |-1.848700e+09 |-1.849228e+09 |   0.03%| unknown
 13.1s|     1 |     0 |  2752 |     - |   958M |   0 | 138 |9463 |9473 |  10 | 10 |   0 |   0 |-1.848701e+09 |-1.849228e+09 |   0.03%| unknown
 13.2s|     1 |     0 |  2803 |     - |   959M |   0 | 138 |9463 |9474 |  11 | 11 |   0 |   0 |-1.848701e+09 |-1.849228e+09 |   0.03%| unknown
 time | node  | left  |LP iter|LP it/n|mem/heur|mdpt |vars |cons |rows |cuts |sepa|confs|strbr|  dualbound   | primalbound  |  gap   | compl. 
 13.2s|     1 |     0 |  2839 |     - |   960M |   0 | 138 |9463 |9475 |  12 | 12 |   0 |   0 |-1.848701e+09 |-1.849228e+09 |   0.03%| unknown
 13.3s|     1 |     0 |  2889 |     - |   961M |   0 | 138 |9463 |9476 |  13 | 13 |   0 |   0 |-1.848701e+09 |-1.849228e+09 |   0.03%| unknown
d13.6s|     1 |     0 |  3921 |     - |farkasdi|   0 | 138 |9463 |9476 |   0 | 15 |   0 |   0 |-1.848701e+09 |-1.849180e+09 |   0.03%| unknown
 13.7s|     1 |     0 |  3921 |     - |   962M |   0 | 138 |9463 |9476 |  13 | 15 |   0 |   0 |-1.848701e+09 |-1.849180e+09 |   0.03%| unknown
 13.8s|     1 |     0 |  3967 |     - |   962M |   0 | 138 |9463 |9477 |  14 | 16 |   0 |   0 |-1.848701e+09 |-1.849180e+09 |   0.03%| unknown
 13.8s|     1 |     0 |  3979 |     - |   962M |   0 | 138 |9463 |9478 |  15 | 17 |   0 |   0 |-1.848701e+09 |-1.849180e+09 |   0.03%| unknown
 21.1s|     1 |     2 |  3979 |     - |   962M |   0 | 138 |9463 |9478 |  15 | 17 |   0 |  29 |-1.848710e+09 |-1.849180e+09 |   0.03%| unknown
*24.7s|     4 |     3 |  5038 | 703.7 |strongbr|   3 | 138 |9463 |9476 |  15 |  1 |   0 |  75 |-1.848710e+09 |-1.849136e+09 |   0.02%| unknown
*41.6s|    18 |     5 |  8477 | 326.5 |    LP  |   9 | 138 |9475 |9476 |  15 |  1 |  12 | 333 |-1.848730e+09 |-1.849124e+09 |   0.02%|  28.93%
*41.6s|    21 |     4 |  8496 | 278.4 |    LP  |  10 | 138 |9475 |9476 |  15 |  1 |  12 | 333 |-1.848730e+09 |-1.849123e+09 |   0.02%|  30.05%
*54.2s|    60 |     7 | 14683 | 199.3 |    LP  |  13 | 138 |9485 |9476 |  23 |  1 |  22 | 449 |-1.848756e+09 |-1.849115e+09 |   0.02%|  45.51%
 56.0s|   100 |    11 | 20508 | 177.6 |   970M |  15 | 138 |9485 |9482 |  38 |  6 |  22 | 449 |-1.848793e+09 |-1.849115e+09 |   0.02%|  48.50%
*59.9s|   137 |    12 | 26174 | 170.9 |    LP  |  15 | 138 |9486 |9481 |  65 |  1 |  23 | 462 |-1.848809e+09 |-1.849101e+09 |   0.02%|  51.66%
*61.3s|   185 |    12 | 31009 | 152.6 |    LP  |  17 | 138 |9475 |9476 |  76 |  1 |  24 | 463 |-1.848835e+09 |-1.849096e+09 |   0.01%|  55.36%
*62.2s|   189 |    12 | 31205 | 150.4 |    LP  |  17 | 138 |9475 |9480 |  80 |  4 |  24 | 463 |-1.848835e+09 |-1.849090e+09 |   0.01%|  55.94%
 time | node  | left  |LP iter|LP it/n|mem/heur|mdpt |vars |cons |rows |cuts |sepa|confs|strbr|  dualbound   | primalbound  |  gap   | compl. 
*62.6s|   193 |    12 | 31579 | 149.2 |    LP  |  17 | 138 |9475 |9481 |  85 |  1 |  24 | 463 |-1.848835e+09 |-1.849084e+09 |   0.01%|  56.97%
 62.7s|   200 |    13 | 31792 | 145.1 |   974M |  17 | 138 |9475 |9481 |  85 |  1 |  24 | 463 |-1.848835e+09 |-1.849084e+09 |   0.01%|  57.45%
 65.8s|   300 |    11 | 41693 | 129.7 |   974M |  26 | 138 |9475 |9481 |  85 |  1 |  24 | 467 |-1.848898e+09 |-1.849084e+09 |   0.01%|  63.85%
 69.8s|   400 |    11 | 49274 | 116.2 |   975M |  26 | 138 |9475 |9482 | 105 |  6 |  24 | 467 |-1.848914e+09 |-1.849084e+09 |   0.01%|  71.90%
 72.6s|   500 |     7 | 57634 | 109.6 |   977M |  26 | 138 |9436 |9481 | 128 |  1 |  24 | 467 |-1.848932e+09 |-1.849084e+09 |   0.01%|  87.96%

SCIP Status        : problem is solved [optimal solution found]
Solving Time (sec) : 74.39
Solving Nodes      : 575
Primal Bound       : -1.84908352095393e+09 (239 solutions)
Dual Bound         : -1.84908352095393e+09
Gap                : 0.00 %
Solve Status: optimal
Solve Time: 79.70 seconds
